\ LP format - for model browsing. Use MPS format to capture full model detail.
Maximize
obj:   x[1] + x[10] + x[19] + x[22] + x[25] + x[2] + x[11] + x[28] + x[31]
   + x[34] + x[3] + x[12] + x[37] + x[40] + x[43] + x[4] + x[13] + x[23]
   + x[29] + x[44] + x[5] + x[14] + x[20] + x[32] + x[41] + x[6] + x[15]
   + x[26] + x[35] + x[38] + x[7] + x[16] + x[27] + x[33] + x[45] + x[8]
   + x[17] + x[24] + x[36] + x[42] + x[9] + x[18] + x[21] + x[30] + x[39]
Subject To
 nod1: 4 x[1] + x[10] + x[19] + x[22] + x[25] <= 4
 nod10: x[1] + 2 x[10] + x[11] + x[12] <= 2
 nod19: x[1] + 2 x[19] + x[20] + x[21] <= 2
 nod22: x[1] + 2 x[22] + x[23] + x[24] <= 2
 nod25: x[1] + 2 x[25] + x[26] + x[27] <= 2
 nod2: 4 x[2] + x[11] + x[28] + x[31] + x[34] <= 4
 nod11: x[10] + x[2] + 2 x[11] + x[12] <= 2
 nod28: x[2] + 2 x[28] + x[29] + x[30] <= 2
 nod31: x[2] + 2 x[31] + x[32] + x[33] <= 2
 nod34: x[2] + 2 x[34] + x[35] + x[36] <= 2
 nod3: 4 x[3] + x[12] + x[37] + x[40] + x[43] <= 4
 nod12: x[10] + x[11] + x[3] + 2 x[12] <= 2
 nod37: x[3] + 2 x[37] + x[38] + x[39] <= 2
 nod40: x[3] + 2 x[40] + x[41] + x[42] <= 2
 nod43: x[3] + 2 x[43] + x[44] + x[45] <= 2
 nod4: 4 x[4] + x[13] + x[23] + x[29] + x[44] <= 4
 nod13: x[4] + 2 x[13] + x[14] + x[15] <= 2
 nod23: x[22] + x[4] + 2 x[23] + x[24] <= 2
 nod29: x[28] + x[4] + 2 x[29] + x[30] <= 2
 nod44: x[43] + x[4] + 2 x[44] + x[45] <= 2
 nod5: 4 x[5] + x[14] + x[20] + x[32] + x[41] <= 4
 nod14: x[13] + x[5] + 2 x[14] + x[15] <= 2
 nod20: x[19] + x[5] + 2 x[20] + x[21] <= 2
 nod32: x[31] + x[5] + 2 x[32] + x[33] <= 2
 nod41: x[40] + x[5] + 2 x[41] + x[42] <= 2
 nod6: 4 x[6] + x[15] + x[26] + x[35] + x[38] <= 4
 nod15: x[13] + x[14] + x[6] + 2 x[15] <= 2
 nod26: x[25] + x[6] + 2 x[26] + x[27] <= 2
 nod35: x[34] + x[6] + 2 x[35] + x[36] <= 2
 nod38: x[37] + x[6] + 2 x[38] + x[39] <= 2
 nod7: 4 x[7] + x[16] + x[27] + x[33] + x[45] <= 4
 nod16: x[7] + 2 x[16] + x[17] + x[18] <= 2
 nod27: x[25] + x[26] + x[7] + 2 x[27] <= 2
 nod33: x[31] + x[32] + x[7] + 2 x[33] <= 2
 nod45: x[43] + x[44] + x[7] + 2 x[45] <= 2
 nod8: 4 x[8] + x[17] + x[24] + x[36] + x[42] <= 4
 nod17: x[16] + x[8] + 2 x[17] + x[18] <= 2
 nod24: x[22] + x[23] + x[8] + 2 x[24] <= 2
 nod36: x[34] + x[35] + x[8] + 2 x[36] <= 2
 nod42: x[40] + x[41] + x[8] + 2 x[42] <= 2
 nod9: 4 x[9] + x[18] + x[21] + x[30] + x[39] <= 4
 nod18: x[16] + x[17] + x[9] + 2 x[18] <= 2
 nod21: x[19] + x[20] + x[9] + 2 x[21] <= 2
 nod30: x[28] + x[29] + x[9] + 2 x[30] <= 2
 nod39: x[37] + x[38] + x[9] + 2 x[39] <= 2
Bounds
Binaries
 x[1] x[10] x[19] x[22] x[25] x[2] x[11] x[28] x[31] x[34] x[3] x[12] x[37]
 x[40] x[43] x[4] x[13] x[23] x[29] x[44] x[5] x[14] x[20] x[32] x[41] x[6]
 x[15] x[26] x[35] x[38] x[7] x[16] x[27] x[33] x[45] x[8] x[17] x[24]
 x[36] x[42] x[9] x[18] x[21] x[30] x[39]
End
